letting n_nurses=25
letting n_days=7
letting n_shift_types=4
letting max_covers=9
letting t_covers=87
letting covers=[5,4,9,0,9,4,9,0,7,9,4,0,1,1,0,0,6,3,9,0,2,1,1,0,0,2,1,0]
letting prefes=[4,1,4,1,3,3,3,3,1,4,1,1,1,1,1,1,1,2,2,1,1,1,1,1,2,1,1,2,4,4,4,4,3,3,1,1,4,1,1,1,4,3,4,4,1,2,2,1,1,1,1,1,2,2,2,2,4,1,4,1,3,3,3,1,4,1,1,1,1,3,1,1,1,1,2,1,4,1,1,1,2,1,1,1,4,1,4,1,1,3,3,1,1,1,1,1,1,3,1,1,1,2,2,1,4,1,1,1,2,1,1,2,1,1,4,1,3,3,3,3,1,1,1,2,1,3,1,1,2,2,2,2,4,1,1,1,1,1,1,1,1,1,1,1,3,3,3,3,1,1,1,1,1,1,1,1,1,2,1,1,4,1,1,1,2,1,1,2,4,1,4,1,3,3,3,1,1,1,1,1,1,3,1,1,1,2,1,1,4,1,1,1,2,1,1,2,4,4,4,4,3,3,3,3,1,1,2,1,1,3,1,1,1,1,2,1,4,1,1,1,2,2,2,2,1,1,4,1,3,3,3,1,1,1,1,1,1,3,1,1,1,2,2,1,1,1,1,1,2,1,1,2,1,1,4,1,1,1,3,1,1,1,2,2,4,3,4,4,2,2,2,2,1,1,1,1,1,1,1,2,4,1,1,1,3,3,3,1,1,4,2,1,4,3,4,4,1,2,2,1,1,1,1,1,1,1,1,1,4,1,4,1,3,3,3,1,1,4,2,1,1,3,1,1,1,2,2,1,4,1,1,1,1,1,1,2,4,1,1,1,1,1,1,1,1,1,2,1,1,3,1,1,1,2,2,1,4,1,1,1,2,1,1,2,4,1,4,1,1,3,3,1,1,1,1,1,4,3,4,4,1,2,2,1,4,1,1,1,2,1,1,2,4,1,4,1,3,3,3,1,1,1,1,1,1,1,1,1,1,2,2,1,4,3,3,3,2,2,2,2,4,1,4,1,3,3,3,1,1,1,1,1,1,3,1,1,1,2,2,1,4,3,3,3,2,1,1,2,4,1,4,1,3,3,3,1,1,4,1,1,1,3,1,1,1,2,2,1,4,1,1,1,1,2,2,2,4,4,4,4,3,3,3,1,4,1,1,1,1,3,1,1,1,1,1,1,4,3,3,3,2,1,1,2,4,1,4,1,3,3,3,1,1,1,1,1,4,3,4,4,1,2,1,1,4,1,1,1,2,1,1,1,4,4,4,4,1,1,1,1,1,1,1,1,1,3,1,1,1,2,2,1,4,1,1,1,2,1,1,2,4,1,1,1,3,1,3,1,1,4,1,1,1,3,1,1,1,1,1,1,4,1,1,1,2,2,2,2,4,1,4,1,3,3,1,1,4,1,1,1,1,3,1,1,1,1,2,1,4,1,1,1,2,1,1,2,4,1,1,1,3,1,3,3,1,1,1,2,1,1,1,1,2,2,2,2,4,3,3,3,2,1,1,1,4,4,4,4,3,3,3,1,4,1,1,2,1,3,1,1,2,2,2,2,4,3,3,3,2,1,1,2,1,1,4,1,3,3,1,1,1,1,1,4,1,1,1,1,4,2,2,4,4,1,1,1,2,1,1,2]
letting ub =  243
